% demand
num_movements = 23;
loading_factor = [1050, 1150, 1050, 2000, 950, 1650, 1200, 1000, 1750, 1400, 1250, 1550, 1600, 1350, 900, 800, 1550, 800, 1050, 1250, 2000, 1950, 1750];
pickup_time = [0, 1, 1, 1, 1, 1, 1, 1, 1, 2, 3, 3, 3, 3, 3, 3, 3, 3, 5, 6, 6, 6, 6];
delivery_time = [1, 2, 3, 3, 3, 2, 5, 3, 3, 3, 6, 7, 6, 6, 6, 6, 6, 6, 6, 7, 7, 7, 7];

% transporter definition
total_capacity = 11000;
num_decks = 4;
capacity = [3000, 3000, 1000, 4000];

% ways out of decks
num_ways_out = 2;
paths_out = array3d(decks, ways_out, decks, [
% ways out of deck d1
2, 4, 0, 0, 3, 4, 0, 0, 

% ways out of deck d2
4, 0, 0, 0, 0, 0, 0, 0,	

% ways out of deck d3
4, 0, 0, 0, 0, 0, 0, 0,	

% ways out of deck d4
0, 0, 0, 0,	0, 0, 0, 0,	

]);

